GLPSOL--GLPK LP/MIP Solver 5.0
Parameter(s) specified in the command line:
 --lp ../modeles/20_199.lp --log 20_199.log
Reading problem data from '../modeles/20_199.lp'...
4061 rows, 8000 columns, 27960 non-zeros
3980 integer variables, all of which are binary
12087 lines were read
GLPK Integer Optimizer 5.0
4061 rows, 8000 columns, 27960 non-zeros
3980 integer variables, all of which are binary
Preprocessing...
3960 constraint coefficient(s) were reduced
4061 rows, 7980 columns, 27940 non-zeros
3980 integer variables, all of which are binary
Scaling...
 A: min|aij| =  1.010e-04  max|aij| =  4.000e+00  ratio =  3.960e+04
GM: min|aij| =  7.089e-02  max|aij| =  1.411e+01  ratio =  1.990e+02
EQ: min|aij| =  5.025e-03  max|aij| =  1.000e+00  ratio =  1.990e+02
2N: min|aij| =  3.906e-03  max|aij| =  1.737e+00  ratio =  4.446e+02
Constructing initial basis...
Size of triangular part is 4061
Solving LP relaxation...
GLPK Simplex Optimizer 5.0
4061 rows, 7980 columns, 27940 non-zeros
      0: obj =   4.000000000e+01 inf =   9.950e+01 (41)
Perturbing LP to avoid stalling [199]...
    259: obj =   4.990025253e-01 inf =   0.000e+00 (0)
Removing LP perturbation [900]...
*   900: obj =  -4.467850617e+00 inf =   3.421e-15 (0) 1
OPTIMAL LP SOLUTION FOUND
Integer optimization begins...
Long-step dual simplex will be used
+   900: mip =     not found yet >=              -inf        (1; 0)
+  1027: >>>>>  -4.467850617e+00 >=  -4.467850617e+00 < 0.1% (125; 0)
+  1027: mip =  -4.467850617e+00 >=     tree is empty   0.0% (0; 249)
INTEGER OPTIMAL SOLUTION FOUND
Time used:   1.4 secs
Memory used: 11.7 Mb (12256632 bytes)
